uart_formal_verification/formal/uart_formal/model/design_smt2.smt2
; SMT-LIBv2 description generated by Yosys 0.66 (git sha1 7f8fdfd8d7bc08c749a2a969388d3425d4f369d5, clang++ 17.0.0 -fPIC -O3)
; yosys-smt2-module uart_assertions
(declare-sort |uart_assertions_s| 0)
(declare-fun |uart_assertions_is| (|uart_assertions_s|) Bool)
; yosys-smt2-witness {"offset": 0, "path": ["$auto$async2sync.cc:107:execute$12"], "smtname": 0, "smtoffset": 0, "type": "reg", "width": 1}
(declare-fun |uart_assertions#0| (|uart_assertions_s|) (_ BitVec 1)) ; $auto$async2sync.cc:107:execute$12
; yosys-smt2-register $auto$async2sync.cc:107:execute$12 1
(define-fun |uart_assertions_n $auto$async2sync.cc:107:execute$12| ((state |uart_assertions_s|)) Bool (= ((_ extract 0 0) (|uart_assertions#0| state)) #b1))
(declare-fun |uart_assertions#1| (|uart_assertions_s|) Bool) ; \clk
; yosys-smt2-input clk 1
; yosys-smt2-wire clk 1
; yosys-smt2-clock clk posedge
; yosys-smt2-witness {"offset": 0, "path": ["\\clk"], "smtname": "clk", "smtoffset": 0, "type": "posedge", "width": 1}
; yosys-smt2-witness {"offset": 0, "path": ["\\clk"], "smtname": "clk", "smtoffset": 0, "type": "input", "width": 1}
(define-fun |uart_assertions_n clk| ((state |uart_assertions_s|)) Bool (|uart_assertions#1| state))
(declare-fun |uart_assertions#2| (|uart_assertions_s|) Bool) ; \reset
; yosys-smt2-input reset 1
; yosys-smt2-wire reset 1
; yosys-smt2-witness {"offset": 0, "path": ["\\reset"], "smtname": "reset", "smtoffset": 0, "type": "input", "width": 1}
(define-fun |uart_assertions_n reset| ((state |uart_assertions_s|)) Bool (|uart_assertions#2| state))
(declare-fun |uart_assertions#3| (|uart_assertions_s|) Bool) ; \tx_busy
; yosys-smt2-input tx_busy 1
; yosys-smt2-wire tx_busy 1
; yosys-smt2-witness {"offset": 0, "path": ["\\tx_busy"], "smtname": "tx_busy", "smtoffset": 0, "type": "input", "width": 1}
(define-fun |uart_assertions_n tx_busy| ((state |uart_assertions_s|)) Bool (|uart_assertions#3| state))
(declare-fun |uart_assertions#4| (|uart_assertions_s|) Bool) ; \tx_start
; yosys-smt2-input tx_start 1
; yosys-smt2-wire tx_start 1
; yosys-smt2-witness {"offset": 0, "path": ["\\tx_start"], "smtname": "tx_start", "smtoffset": 0, "type": "input", "width": 1}
(define-fun |uart_assertions_n tx_start| ((state |uart_assertions_s|)) Bool (|uart_assertions#4| state))
(define-fun |uart_assertions#5| ((state |uart_assertions_s|)) (_ BitVec 1) (bvnot (ite (|uart_assertions#1| state) #b1 #b0))) ; $auto$rtlil.cc:3255:Not$37
; yosys-smt2-assume 0 $auto$formalff.cc:987:execute$38
(define-fun |uart_assertions_u 0| ((state |uart_assertions_s|)) Bool (or (= ((_ extract 0 0) (|uart_assertions#5| state)) #b1) (not true))) ; $auto$formalff.cc:987:execute$38
; yosys-smt2-assert 0 _witness_.check_assert_uart_assertions_sv_9_2 uart_assertions.sv:9.5-9.14
(define-fun |uart_assertions_a 0| ((state |uart_assertions_s|)) Bool (or true (not (= ((_ extract 0 0) (|uart_assertions#0| state)) #b1)))) ; _witness_.check_assert_uart_assertions_sv_9_2
(define-fun |uart_assertions_a| ((state |uart_assertions_s|)) Bool 
  (|uart_assertions_a 0| state)
)
(define-fun |uart_assertions_u| ((state |uart_assertions_s|)) Bool 
  (|uart_assertions_u 0| state)
)
(define-fun |uart_assertions_i| ((state |uart_assertions_s|)) Bool 
  (= (= ((_ extract 0 0) (|uart_assertions#0| state)) #b1) false) ; $auto$async2sync.cc:107:execute$12
)
(define-fun |uart_assertions_h| ((state |uart_assertions_s|)) Bool true)
(define-fun |uart_assertions_t| ((state |uart_assertions_s|) (next_state |uart_assertions_s|)) Bool 
  (= #b1 (|uart_assertions#0| next_state)) ; $auto$async2sync.cc:110:execute$14 $auto$async2sync.cc:107:execute$12
) ; end of module uart_assertions
; yosys-smt2-module uart
(declare-sort |uart_s| 0)
(declare-fun |uart_is| (|uart_s|) Bool)
(declare-fun |uart#0| (|uart_s|) Bool) ; \clk
; yosys-smt2-input clk 1
; yosys-smt2-wire clk 1
; yosys-smt2-clock clk posedge
; yosys-smt2-witness {"offset": 0, "path": ["\\clk"], "smtname": "clk", "smtoffset": 0, "type": "posedge", "width": 1}
; yosys-smt2-witness {"offset": 0, "path": ["\\clk"], "smtname": "clk", "smtoffset": 0, "type": "input", "width": 1}
(define-fun |uart_n clk| ((state |uart_s|)) Bool (|uart#0| state))
(declare-fun |uart#1| (|uart_s|) Bool) ; \reset
; yosys-smt2-input reset 1
; yosys-smt2-wire reset 1
; yosys-smt2-witness {"offset": 0, "path": ["\\reset"], "smtname": "reset", "smtoffset": 0, "type": "input", "width": 1}
(define-fun |uart_n reset| ((state |uart_s|)) Bool (|uart#1| state))
; yosys-smt2-anyinit uart#2 1 uart.sv:9.1-14.4
; yosys-smt2-witness {"offset": 0, "path": ["\\tx_busy"], "smtname": 2, "smtoffset": 0, "type": "init", "width": 1}
(declare-fun |uart#2| (|uart_s|) (_ BitVec 1)) ; \tx_busy
; yosys-smt2-output tx_busy 1
; yosys-smt2-register tx_busy 1
; yosys-smt2-wire tx_busy 1
(define-fun |uart_n tx_busy| ((state |uart_s|)) Bool (= ((_ extract 0 0) (|uart#2| state)) #b1))
(declare-fun |uart#3| (|uart_s|) Bool) ; \tx_start
; yosys-smt2-input tx_start 1
; yosys-smt2-wire tx_start 1
; yosys-smt2-witness {"offset": 0, "path": ["\\tx_start"], "smtname": "tx_start", "smtoffset": 0, "type": "input", "width": 1}
(define-fun |uart_n tx_start| ((state |uart_s|)) Bool (|uart#3| state))
(define-fun |uart#4| ((state |uart_s|)) (_ BitVec 1) (bvnot (ite (|uart#0| state) #b1 #b0))) ; $auto$rtlil.cc:3255:Not$34
; yosys-smt2-assume 0 $auto$formalff.cc:987:execute$35
(define-fun |uart_u 0| ((state |uart_s|)) Bool (or (= ((_ extract 0 0) (|uart#4| state)) #b1) (not true))) ; $auto$formalff.cc:987:execute$35
(define-fun |uart#5| ((state |uart_s|)) (_ BitVec 1) (ite (|uart#3| state) #b1 (|uart#2| state))) ; $procmux$6_Y
(define-fun |uart#6| ((state |uart_s|)) (_ BitVec 1) (ite (|uart#1| state) #b0 (|uart#5| state))) ; $0\tx_busy[0:0]
(define-fun |uart_a| ((state |uart_s|)) Bool true)
(define-fun |uart_u| ((state |uart_s|)) Bool 
  (|uart_u 0| state)
)
(define-fun |uart_i| ((state |uart_s|)) Bool true)
(define-fun |uart_h| ((state |uart_s|)) Bool true)
(define-fun |uart_t| ((state |uart_s|) (next_state |uart_s|)) Bool 
  (= (|uart#6| state) (|uart#2| next_state)) ; $procdff$11 \tx_busy
) ; end of module uart
; yosys-smt2-module uart_formal
(declare-sort |uart_formal_s| 0)
(declare-fun |uart_formal_is| (|uart_formal_s|) Bool)
; yosys-smt2-anyseq uart_formal#0 1 $auto$setundef.cc:350:execute$27
; yosys-smt2-witness {"offset": 0, "path": ["\\clk"], "smtname": 0, "smtoffset": 0, "type": "seq", "width": 1}
(declare-fun |uart_formal#0| (|uart_formal_s|) (_ BitVec 1)) ; \clk
; yosys-smt2-wire clk 1
; yosys-smt2-clock clk posedge
(define-fun |uart_formal_n clk| ((state |uart_formal_s|)) Bool (= ((_ extract 0 0) (|uart_formal#0| state)) #b1))
; yosys-smt2-anyseq uart_formal#1 1 $auto$setundef.cc:350:execute$29
; yosys-smt2-witness {"offset": 0, "path": ["\\reset"], "smtname": 1, "smtoffset": 0, "type": "seq", "width": 1}
(declare-fun |uart_formal#1| (|uart_formal_s|) (_ BitVec 1)) ; \reset
; yosys-smt2-wire reset 1
(define-fun |uart_formal_n reset| ((state |uart_formal_s|)) Bool (= ((_ extract 0 0) (|uart_formal#1| state)) #b1))
; yosys-smt2-cell uart dut
; yosys-smt2-witness {"path": ["\\dut"], "smtname": "dut", "type": "cell"}
(declare-fun |uart_formal#2| (|uart_formal_s|) Bool) ; \tx_busy
(declare-fun |uart_formal_h dut| (|uart_formal_s|) |uart_s|)
; yosys-smt2-wire tx_busy 1
(define-fun |uart_formal_n tx_busy| ((state |uart_formal_s|)) Bool (|uart_formal#2| state))
; yosys-smt2-anyseq uart_formal#3 1 $auto$setundef.cc:350:execute$31
; yosys-smt2-witness {"offset": 0, "path": ["\\tx_start"], "smtname": 3, "smtoffset": 0, "type": "seq", "width": 1}
(declare-fun |uart_formal#3| (|uart_formal_s|) (_ BitVec 1)) ; \tx_start
; yosys-smt2-wire tx_start 1
(define-fun |uart_formal_n tx_start| ((state |uart_formal_s|)) Bool (= ((_ extract 0 0) (|uart_formal#3| state)) #b1))
(define-fun |uart_formal#4| ((state |uart_formal_s|)) (_ BitVec 1) (bvnot (|uart_formal#0| state))) ; $auto$rtlil.cc:3255:Not$40
; yosys-smt2-assume 0 $auto$formalff.cc:987:execute$41
(define-fun |uart_formal_u 0| ((state |uart_formal_s|)) Bool (or (= ((_ extract 0 0) (|uart_formal#4| state)) #b1) (not true))) ; $auto$formalff.cc:987:execute$41
; yosys-smt2-cell uart_assertions monitor_inst
; yosys-smt2-witness {"path": ["\\monitor_inst"], "smtname": "monitor_inst", "type": "cell"}
(declare-fun |uart_formal_h monitor_inst| (|uart_formal_s|) |uart_assertions_s|)
(define-fun |uart_formal_a| ((state |uart_formal_s|)) Bool (and
  (|uart_assertions_a| (|uart_formal_h monitor_inst| state))
  (|uart_a| (|uart_formal_h dut| state))
))
(define-fun |uart_formal_u| ((state |uart_formal_s|)) Bool (and
  (|uart_formal_u 0| state)
  (|uart_assertions_u| (|uart_formal_h monitor_inst| state))
  (|uart_u| (|uart_formal_h dut| state))
))
(define-fun |uart_formal_i| ((state |uart_formal_s|)) Bool (and
  (|uart_assertions_i| (|uart_formal_h monitor_inst| state))
  (|uart_i| (|uart_formal_h dut| state))
))
(define-fun |uart_formal_h| ((state |uart_formal_s|)) Bool (and
  (= (|uart_formal_is| state) (|uart_assertions_is| (|uart_formal_h monitor_inst| state)))
  (= (= ((_ extract 0 0) (|uart_formal#0| state)) #b1) (|uart_assertions_n clk| (|uart_formal_h monitor_inst| state))) ; uart_assertions.clk
  (= (= ((_ extract 0 0) (|uart_formal#1| state)) #b1) (|uart_assertions_n reset| (|uart_formal_h monitor_inst| state))) ; uart_assertions.reset
  (= (|uart_formal#2| state) (|uart_assertions_n tx_busy| (|uart_formal_h monitor_inst| state))) ; uart_assertions.tx_busy
  (= (= ((_ extract 0 0) (|uart_formal#3| state)) #b1) (|uart_assertions_n tx_start| (|uart_formal_h monitor_inst| state))) ; uart_assertions.tx_start
  (= (|uart_formal_is| state) (|uart_is| (|uart_formal_h dut| state)))
  (= (= ((_ extract 0 0) (|uart_formal#0| state)) #b1) (|uart_n clk| (|uart_formal_h dut| state))) ; uart.clk
  (= (= ((_ extract 0 0) (|uart_formal#1| state)) #b1) (|uart_n reset| (|uart_formal_h dut| state))) ; uart.reset
  (= (|uart_formal#2| state) (|uart_n tx_busy| (|uart_formal_h dut| state))) ; uart.tx_busy
  (= (= ((_ extract 0 0) (|uart_formal#3| state)) #b1) (|uart_n tx_start| (|uart_formal_h dut| state))) ; uart.tx_start
  (|uart_assertions_h| (|uart_formal_h monitor_inst| state))
  (|uart_h| (|uart_formal_h dut| state))
))
(define-fun |uart_formal_t| ((state |uart_formal_s|) (next_state |uart_formal_s|)) Bool (and
  (|uart_assertions_t| (|uart_formal_h monitor_inst| state) (|uart_formal_h monitor_inst| next_state))
  (|uart_t| (|uart_formal_h dut| state) (|uart_formal_h dut| next_state))
)) ; end of module uart_formal
; yosys-smt2-topmod uart_formal
; end of yosys output
